p wcnf 1810 1807 5
5 -19 1 
5 -21 1 
5 -23 1 
5 -25 1 
5 -27 1 
5 -29 1 
5 -31 1 
5 -33 1 
5 -35 1 
5 -37 1 
5 -40 1 
5 -43 1 
5 -46 1 
5 -49 1 
5 -52 1 
5 -55 1 
5 -58 1 
5 -61 1 
5 -64 1 
5 -68 1 
5 -72 1 
5 -76 1 
5 -80 1 
5 -84 1 
5 -88 1 
5 -92 1 
5 -96 1 
5 -100 1 
5 -105 1 
5 -110 1 
5 -115 1 
5 -120 1 
5 -125 1 
5 -130 1 
5 -135 1 
5 -140 1 
5 -145 1 
5 -151 1 
5 -157 1 
5 -163 1 
5 -169 1 
5 -175 1 
5 -181 1 
5 -187 1 
5 -193 1 
5 -199 1 
5 -206 1 
5 -213 1 
5 -220 1 
5 -227 1 
5 -234 1 
5 -241 1 
5 -248 1 
5 -255 1 
5 -262 1 
5 -270 1 
5 -278 1 
5 -286 1 
5 -294 1 
5 -302 1 
5 -310 1 
5 -318 1 
5 -326 1 
5 -334 1 
5 -343 1 
5 -352 1 
5 -361 1 
5 -370 1 
5 -379 1 
5 -388 1 
5 -397 1 
5 -406 1 
5 -415 19 
5 -419 19 
5 -423 19 
5 -427 19 
5 -431 19 
5 -435 19 
5 -439 19 
5 -443 19 
5 -447 19 
5 -452 19 
5 -457 19 
5 -462 19 
5 -467 19 
5 -472 19 
5 -477 19 
5 -482 19 
5 -487 19 
5 -493 19 
5 -499 19 
5 -505 19 
5 -511 19 
5 -517 19 
5 -523 19 
5 -529 19 
5 -535 19 
5 -542 19 
5 -549 19 
5 -556 19 
5 -563 19 
5 -570 19 
5 -577 19 
5 -584 19 
5 -591 19 
5 -599 19 
5 -607 19 
5 -615 19 
5 -623 19 
5 -631 19 
5 -639 19 
5 -647 19 
5 -655 19 
5 -664 19 
5 -673 19 
5 -682 19 
5 -691 19 
5 -700 19 
5 -709 19 
5 -718 19 
5 -727 19 
5 -737 19 
5 -747 19 
5 -757 19 
5 -767 19 
5 -777 19 
5 -787 19 
5 -797 19 
5 -807 37 415 419 423 427 431 435 439 443 
5 -811 37 415 419 423 427 431 435 439 443 
5 -815 37 415 419 423 427 431 435 439 443 
5 -819 37 415 419 423 427 431 435 439 443 
5 -823 37 415 419 423 427 431 435 439 443 
5 -827 37 415 419 423 427 431 435 439 443 
5 -831 37 415 419 423 427 431 435 439 443 
5 -835 37 415 419 423 427 431 435 439 443 
5 -840 37 415 419 423 427 431 435 439 443 
5 -845 37 415 419 423 427 431 435 439 443 
5 -850 37 415 419 423 427 431 435 439 443 
5 -855 37 415 419 423 427 431 435 439 443 
5 -860 37 415 419 423 427 431 435 439 443 
5 -865 37 415 419 423 427 431 435 439 443 
5 -870 37 415 419 423 427 431 435 439 443 
5 -876 37 415 419 423 427 431 435 439 443 
5 -882 37 415 419 423 427 431 435 439 443 
5 -888 37 415 419 423 427 431 435 439 443 
5 -894 37 415 419 423 427 431 435 439 443 
5 -900 37 415 419 423 427 431 435 439 443 
5 -906 37 415 419 423 427 431 435 439 443 
5 -912 37 415 419 423 427 431 435 439 443 
5 -919 37 415 419 423 427 431 435 439 443 
5 -926 37 415 419 423 427 431 435 439 443 
5 -933 37 415 419 423 427 431 435 439 443 
5 -940 37 415 419 423 427 431 435 439 443 
5 -947 37 415 419 423 427 431 435 439 443 
5 -954 37 415 419 423 427 431 435 439 443 
5 -961 37 415 419 423 427 431 435 439 443 
5 -969 37 415 419 423 427 431 435 439 443 
5 -977 37 415 419 423 427 431 435 439 443 
5 -985 37 415 419 423 427 431 435 439 443 
5 -993 37 415 419 423 427 431 435 439 443 
5 -1001 37 415 419 423 427 431 435 439 443 
5 -1009 37 415 419 423 427 431 435 439 443 
5 -1017 37 415 419 423 427 431 435 439 443 
5 -1026 37 415 419 423 427 431 435 439 443 
5 -1035 37 415 419 423 427 431 435 439 443 
5 -1044 37 415 419 423 427 431 435 439 443 
5 -1053 37 415 419 423 427 431 435 439 443 
5 -1062 37 415 419 423 427 431 435 439 443 
5 -1071 37 415 419 423 427 431 435 439 443 
5 -1080 64 447 452 457 462 467 472 477 482 
5 -1084 64 447 452 457 462 467 472 477 482 
5 -1088 64 447 452 457 462 467 472 477 482 
5 -1092 64 447 452 457 462 467 472 477 482 
5 -1096 64 447 452 457 462 467 472 477 482 
5 -1100 64 447 452 457 462 467 472 477 482 
5 -1104 64 447 452 457 462 467 472 477 482 
5 -1109 64 447 452 457 462 467 472 477 482 
5 -1114 64 447 452 457 462 467 472 477 482 
5 -1119 64 447 452 457 462 467 472 477 482 
5 -1124 64 447 452 457 462 467 472 477 482 
5 -1129 64 447 452 457 462 467 472 477 482 
5 -1134 64 447 452 457 462 467 472 477 482 
5 -1140 64 447 452 457 462 467 472 477 482 
5 -1146 64 447 452 457 462 467 472 477 482 
5 -1152 64 447 452 457 462 467 472 477 482 
5 -1158 64 447 452 457 462 467 472 477 482 
5 -1164 64 447 452 457 462 467 472 477 482 
5 -1170 64 447 452 457 462 467 472 477 482 
5 -1177 64 447 452 457 462 467 472 477 482 
5 -1184 64 447 452 457 462 467 472 477 482 
5 -1191 64 447 452 457 462 467 472 477 482 
5 -1198 64 447 452 457 462 467 472 477 482 
5 -1205 64 447 452 457 462 467 472 477 482 
5 -1212 64 447 452 457 462 467 472 477 482 
5 -1220 64 447 452 457 462 467 472 477 482 
5 -1228 64 447 452 457 462 467 472 477 482 
5 -1236 64 447 452 457 462 467 472 477 482 
5 -1244 64 447 452 457 462 467 472 477 482 
5 -1252 64 447 452 457 462 467 472 477 482 
5 -1260 100 487 493 499 505 511 517 523 529 
5 -1264 100 487 493 499 505 511 517 523 529 
5 -1268 100 487 493 499 505 511 517 523 529 
5 -1272 100 487 493 499 505 511 517 523 529 
5 -1276 100 487 493 499 505 511 517 523 529 
5 -1280 100 487 493 499 505 511 517 523 529 
5 -1285 100 487 493 499 505 511 517 523 529 
5 -1290 100 487 493 499 505 511 517 523 529 
5 -1295 100 487 493 499 505 511 517 523 529 
5 -1300 100 487 493 499 505 511 517 523 529 
5 -1305 100 487 493 499 505 511 517 523 529 
5 -1311 100 487 493 499 505 511 517 523 529 
5 -1317 100 487 493 499 505 511 517 523 529 
5 -1323 100 487 493 499 505 511 517 523 529 
5 -1329 100 487 493 499 505 511 517 523 529 
5 -1335 100 487 493 499 505 511 517 523 529 
5 -1342 100 487 493 499 505 511 517 523 529 
5 -1349 100 487 493 499 505 511 517 523 529 
5 -1356 100 487 493 499 505 511 517 523 529 
5 -1363 100 487 493 499 505 511 517 523 529 
5 -1370 145 535 542 549 556 563 570 577 584 
5 -1374 145 535 542 549 556 563 570 577 584 
5 -1378 145 535 542 549 556 563 570 577 584 
5 -1382 145 535 542 549 556 563 570 577 584 
5 -1386 145 535 542 549 556 563 570 577 584 
5 -1391 145 535 542 549 556 563 570 577 584 
5 -1396 145 535 542 549 556 563 570 577 584 
5 -1401 145 535 542 549 556 563 570 577 584 
5 -1406 145 535 542 549 556 563 570 577 584 
5 -1412 145 535 542 549 556 563 570 577 584 
5 -1418 145 535 542 549 556 563 570 577 584 
5 -1424 145 535 542 549 556 563 570 577 584 
5 -1430 199 591 599 607 615 623 631 639 647 
5 -1434 199 591 599 607 615 623 631 639 647 
5 -1438 199 591 599 607 615 623 631 639 647 
5 -1442 199 591 599 607 615 623 631 639 647 
5 -1447 199 591 599 607 615 623 631 639 647 
5 -1452 199 591 599 607 615 623 631 639 647 
5 -1457 262 655 664 673 682 691 700 709 718 
5 -1461 262 655 664 673 682 691 700 709 718 
5 -1465 1 
5 -1467 1 
5 -1469 1 
5 -1471 1 
5 -1473 1 
5 -1475 1 
5 -1477 1 
5 -1479 1 
5 -1481 1 
5 -1483 1 
5 -1486 1 
5 -1489 1 
5 -1492 1 
5 -1495 1 
5 -1498 1 
5 -1501 1 
5 -1504 1 
5 -1507 1 
5 -1510 1 
5 -1514 1 
5 -1518 1 
5 -1522 1 
5 -1526 1 
5 -1530 1 
5 -1534 1 
5 -1538 1 
5 -1542 1 
5 -1546 1 
5 -1551 1 
5 -1556 1 
5 -1561 1 
5 -1566 1 
5 -1571 1 
5 -1576 1 
5 -1581 1 
5 -1586 1 
5 -1591 1465 
5 -1595 1465 
5 -1599 1465 
5 -1603 1465 
5 -1607 1465 
5 -1611 1465 
5 -1615 1465 
5 -1619 1465 
5 -1623 1465 
5 -1628 1465 
5 -1633 1465 
5 -1638 1465 
5 -1643 1465 
5 -1648 1465 
5 -1653 1465 
5 -1658 1465 
5 -1663 1465 
5 -1669 1465 
5 -1675 1465 
5 -1681 1465 
5 -1687 1465 
5 -1693 1465 
5 -1699 1465 
5 -1705 1465 
5 -1711 1483 1591 1595 1599 1603 1607 1611 1615 1619 
5 -1715 1483 1591 1595 1599 1603 1607 1611 1615 1619 
5 -1719 1483 1591 1595 1599 1603 1607 1611 1615 1619 
5 -1723 1483 1591 1595 1599 1603 1607 1611 1615 1619 
5 -1727 1483 1591 1595 1599 1603 1607 1611 1615 1619 
5 -1731 1483 1591 1595 1599 1603 1607 1611 1615 1619 
5 -1735 1483 1591 1595 1599 1603 1607 1611 1615 1619 
5 -1739 1483 1591 1595 1599 1603 1607 1611 1615 1619 
5 -1744 1483 1591 1595 1599 1603 1607 1611 1615 1619 
5 -1749 1483 1591 1595 1599 1603 1607 1611 1615 1619 
5 -1754 1483 1591 1595 1599 1603 1607 1611 1615 1619 
5 -1759 1483 1591 1595 1599 1603 1607 1611 1615 1619 
5 -1764 1483 1591 1595 1599 1603 1607 1611 1615 1619 
5 -1769 1483 1591 1595 1599 1603 1607 1611 1615 1619 
5 -1774 1510 1623 1628 1633 1638 1643 1648 1653 1658 
5 -1778 1510 1623 1628 1633 1638 1643 1648 1653 1658 
5 -1782 1510 1623 1628 1633 1638 1643 1648 1653 1658 
5 -1786 1510 1623 1628 1633 1638 1643 1648 1653 1658 
5 -1790 1510 1623 1628 1633 1638 1643 1648 1653 1658 
5 -1794 1510 1623 1628 1633 1638 1643 1648 1653 1658 
5 -1798 334 343 352 361 370 379 388 397 406 727 737 747 757 767 777 787 797 1017 1026 1035 1044 1053 1062 1071 1212 1220 1228 1236 1244 1252 1335 1342 1349 1356 1363 1406 1412 1418 1424 1546 1663 1669 1675 1681 1687 1693 1699 1705 
5 -1800 334 343 352 361 370 379 388 397 406 727 737 747 757 767 777 787 797 1017 1026 1035 1044 1053 1062 1071 1212 1220 1228 1236 1244 1252 1335 1342 1349 1356 1363 1406 1412 1418 1424 1546 1663 1669 1675 1681 1687 1693 1699 1705 
5 -1802 334 343 352 361 370 379 388 397 406 727 737 747 757 767 777 787 797 1017 1026 1035 1044 1053 1062 1071 1212 1220 1228 1236 1244 1252 1335 1342 1349 1356 1363 1406 1412 1418 1424 1546 1663 1669 1675 1681 1687 1693 1699 1705 
5 -1804 334 343 352 361 370 379 388 397 406 727 737 747 757 767 777 787 797 1017 1026 1035 1044 1053 1062 1071 1212 1220 1228 1236 1244 1252 1335 1342 1349 1356 1363 1406 1412 1418 1424 1546 1663 1669 1675 1681 1687 1693 1699 1705 
5 -1806 334 343 352 361 370 379 388 397 406 727 737 747 757 767 777 787 797 1017 1026 1035 1044 1053 1062 1071 1212 1220 1228 1236 1244 1252 1335 1342 1349 1356 1363 1406 1412 1418 1424 1546 1663 1669 1675 1681 1687 1693 1699 1705 
5 19 21 23 25 27 29 31 33 35 37 40 43 46 49 52 55 58 61 64 68 72 76 80 84 88 92 96 100 105 110 115 120 125 130 135 140 145 151 157 163 169 175 181 187 193 199 206 213 220 227 234 241 248 255 262 270 278 286 294 302 310 318 326 334 343 352 361 370 379 388 397 406 
5 19 21 23 25 27 29 31 33 35 37 40 43 46 49 52 55 58 61 64 68 72 76 80 84 88 92 96 100 105 110 115 120 125 130 135 140 145 151 157 163 169 175 181 187 193 199 206 213 220 227 234 241 248 255 262 270 278 286 294 302 310 318 326 334 343 352 361 370 379 388 397 406 415 419 423 427 431 435 439 443 447 452 457 462 467 472 477 482 487 493 499 505 511 517 523 529 535 542 549 556 563 570 577 584 591 599 607 615 623 631 639 647 655 664 673 682 691 700 709 718 727 737 747 757 767 777 787 797 
5 37 40 43 46 49 52 55 58 61 64 68 72 76 80 84 88 92 96 100 105 110 115 120 125 130 135 140 145 151 157 163 169 175 181 187 193 199 206 213 220 227 234 241 248 255 262 270 278 286 294 302 310 318 326 334 343 352 361 370 379 388 397 406 415 419 423 427 431 435 439 443 447 452 457 462 467 472 477 482 487 493 499 505 511 517 523 529 535 542 549 556 563 570 577 584 591 599 607 615 623 631 639 647 655 664 673 682 691 700 709 718 727 737 747 757 767 777 787 797 807 811 815 819 823 827 831 835 840 845 850 855 860 865 870 876 882 888 894 900 906 912 919 926 933 940 947 954 961 969 977 985 993 1001 1009 1017 1026 1035 1044 1053 1062 1071 
5 64 68 72 76 80 84 88 92 96 100 105 110 115 120 125 130 135 140 145 151 157 163 169 175 181 187 193 199 206 213 220 227 234 241 248 255 262 270 278 286 294 302 310 318 326 334 343 352 361 370 379 388 397 406 415 419 423 427 431 435 439 443 447 452 457 462 467 472 477 482 487 493 499 505 511 517 523 529 535 542 549 556 563 570 577 584 591 599 607 615 623 631 639 647 655 664 673 682 691 700 709 718 727 737 747 757 767 777 787 797 807 811 815 819 823 827 831 835 840 845 850 855 860 865 870 876 882 888 894 900 906 912 919 926 933 940 947 954 961 969 977 985 993 1001 1009 1017 1026 1035 1044 1053 1062 1071 1080 1084 1088 1092 1096 1100 1104 1109 1114 1119 1124 1129 1134 1140 1146 1152 1158 1164 1170 1177 1184 1191 1198 1205 1212 1220 1228 1236 1244 1252 
5 100 105 110 115 120 125 130 135 140 145 151 157 163 169 175 181 187 193 199 206 213 220 227 234 241 248 255 262 270 278 286 294 302 310 318 326 334 343 352 361 370 379 388 397 406 415 419 423 427 431 435 439 443 447 452 457 462 467 472 477 482 487 493 499 505 511 517 523 529 535 542 549 556 563 570 577 584 591 599 607 615 623 631 639 647 655 664 673 682 691 700 709 718 727 737 747 757 767 777 787 797 807 811 815 819 823 827 831 835 840 845 850 855 860 865 870 876 882 888 894 900 906 912 919 926 933 940 947 954 961 969 977 985 993 1001 1009 1017 1026 1035 1044 1053 1062 1071 1080 1084 1088 1092 1096 1100 1104 1109 1114 1119 1124 1129 1134 1140 1146 1152 1158 1164 1170 1177 1184 1191 1198 1205 1212 1220 1228 1236 1244 1252 1260 1264 1268 1272 1276 1280 1285 1290 1295 1300 1305 1311 1317 1323 1329 1335 1342 1349 1356 1363 
5 145 151 157 163 169 175 181 187 193 199 206 213 220 227 234 241 248 255 262 270 278 286 294 302 310 318 326 334 343 352 361 370 379 388 397 406 447 452 457 462 467 472 477 482 487 493 499 505 511 517 523 529 535 542 549 556 563 570 577 584 591 599 607 615 623 631 639 647 655 664 673 682 691 700 709 718 727 737 747 757 767 777 787 797 807 811 815 819 823 827 831 835 840 845 850 855 860 865 870 876 882 888 894 900 906 912 919 926 933 940 947 954 961 969 977 985 993 1001 1009 1017 1026 1035 1044 1053 1062 1071 1080 1084 1088 1092 1096 1100 1104 1109 1114 1119 1124 1129 1134 1140 1146 1152 1158 1164 1170 1177 1184 1191 1198 1205 1212 1220 1228 1236 1244 1252 1260 1264 1268 1272 1276 1280 1285 1290 1295 1300 1305 1311 1317 1323 1329 1335 1342 1349 1356 1363 1370 1374 1378 1382 1386 1391 1396 1401 1406 1412 1418 1424 
5 199 206 213 220 227 234 241 248 255 262 270 278 286 294 302 310 318 326 334 343 352 361 370 379 388 397 406 487 493 499 505 511 517 523 529 535 542 549 556 563 570 577 584 591 599 607 615 623 631 639 647 655 664 673 682 691 700 709 718 727 737 747 757 767 777 787 797 835 840 845 850 855 860 865 870 876 882 888 894 900 906 912 919 926 933 940 947 954 961 969 977 985 993 1001 1009 1017 1026 1035 1044 1053 1062 1071 1080 1084 1088 1092 1096 1100 1104 1109 1114 1119 1124 1129 1134 1140 1146 1152 1158 1164 1170 1177 1184 1191 1198 1205 1212 1220 1228 1236 1244 1252 1260 1264 1268 1272 1276 1280 1285 1290 1295 1300 1305 1311 1317 1323 1329 1335 1342 1349 1356 1363 1370 1374 1378 1382 1386 1391 1396 1401 1406 1412 1418 1424 1430 1434 1438 1442 1447 1452 
5 262 270 278 286 294 302 310 318 326 334 343 352 361 370 379 388 397 406 535 542 549 556 563 570 577 584 591 599 607 615 623 631 639 647 655 664 673 682 691 700 709 718 727 737 747 757 767 777 787 797 870 876 882 888 894 900 906 912 919 926 933 940 947 954 961 969 977 985 993 1001 1009 1017 1026 1035 1044 1053 1062 1071 1104 1109 1114 1119 1124 1129 1134 1140 1146 1152 1158 1164 1170 1177 1184 1191 1198 1205 1212 1220 1228 1236 1244 1252 1260 1264 1268 1272 1276 1280 1285 1290 1295 1300 1305 1311 1317 1323 1329 1335 1342 1349 1356 1363 1370 1374 1378 1382 1386 1391 1396 1401 1406 1412 1418 1424 1430 1434 1438 1442 1447 1452 1457 1461 
5 1465 1467 1469 1471 1473 1475 1477 1479 1481 1483 1486 1489 1492 1495 1498 1501 1504 1507 1510 1514 1518 1522 1526 1530 1534 1538 1542 1546 1551 1556 1561 1566 1571 1576 1581 1586 
5 1465 1467 1469 1471 1473 1475 1477 1479 1481 1483 1486 1489 1492 1495 1498 1501 1504 1507 1510 1514 1518 1522 1526 1530 1534 1538 1542 1546 1551 1556 1561 1566 1571 1576 1581 1586 1591 1595 1599 1603 1607 1611 1615 1619 1623 1628 1633 1638 1643 1648 1653 1658 1663 1669 1675 1681 1687 1693 1699 1705 
5 1483 1486 1489 1492 1495 1498 1501 1504 1507 1510 1514 1518 1522 1526 1530 1534 1538 1542 1546 1551 1556 1561 1566 1571 1576 1581 1586 1591 1595 1599 1603 1607 1611 1615 1619 1623 1628 1633 1638 1643 1648 1653 1658 1663 1669 1675 1681 1687 1693 1699 1705 1711 1715 1719 1723 1727 1731 1735 1739 1744 1749 1754 1759 1764 1769 
5 1510 1514 1518 1522 1526 1530 1534 1538 1542 1546 1551 1556 1561 1566 1571 1576 1581 1586 1591 1595 1599 1603 1607 1611 1615 1619 1623 1628 1633 1638 1643 1648 1653 1658 1663 1669 1675 1681 1687 1693 1699 1705 1711 1715 1719 1723 1727 1731 1735 1739 1744 1749 1754 1759 1764 1769 1774 1778 1782 1786 1790 1794 
5 -1 2 
5 -3 4 
5 -5 6 
5 -7 8 
5 -9 10 
5 -11 12 
5 -13 14 
5 -15 16 
5 -17 18 
5 -19 20 
5 -21 22 
5 -23 24 
5 -25 26 
5 -27 28 
5 -29 30 
5 -31 32 
5 -33 34 
5 -35 36 
5 -37 38 
5 -37 39 
5 -40 41 
5 -40 42 
5 -43 44 
5 -43 45 
5 -46 47 
5 -46 48 
5 -49 50 
5 -49 51 
5 -52 53 
5 -52 54 
5 -55 56 
5 -55 57 
5 -58 59 
5 -58 60 
5 -61 62 
5 -61 63 
5 -64 65 
5 -64 66 
5 -64 67 
5 -68 69 
5 -68 70 
5 -68 71 
5 -72 73 
5 -72 74 
5 -72 75 
5 -76 77 
5 -76 78 
5 -76 79 
5 -80 81 
5 -80 82 
5 -80 83 
5 -84 85 
5 -84 86 
5 -84 87 
5 -88 89 
5 -88 90 
5 -88 91 
5 -92 93 
5 -92 94 
5 -92 95 
5 -96 97 
5 -96 98 
5 -96 99 
5 -100 101 
5 -100 102 
5 -100 103 
5 -100 104 
5 -105 106 
5 -105 107 
5 -105 108 
5 -105 109 
5 -110 111 
5 -110 112 
5 -110 113 
5 -110 114 
5 -115 116 
5 -115 117 
5 -115 118 
5 -115 119 
5 -120 121 
5 -120 122 
5 -120 123 
5 -120 124 
5 -125 126 
5 -125 127 
5 -125 128 
5 -125 129 
5 -130 131 
5 -130 132 
5 -130 133 
5 -130 134 
5 -135 136 
5 -135 137 
5 -135 138 
5 -135 139 
5 -140 141 
5 -140 142 
5 -140 143 
5 -140 144 
5 -145 146 
5 -145 147 
5 -145 148 
5 -145 149 
5 -145 150 
5 -151 152 
5 -151 153 
5 -151 154 
5 -151 155 
5 -151 156 
5 -157 158 
5 -157 159 
5 -157 160 
5 -157 161 
5 -157 162 
5 -163 164 
5 -163 165 
5 -163 166 
5 -163 167 
5 -163 168 
5 -169 170 
5 -169 171 
5 -169 172 
5 -169 173 
5 -169 174 
5 -175 176 
5 -175 177 
5 -175 178 
5 -175 179 
5 -175 180 
5 -181 182 
5 -181 183 
5 -181 184 
5 -181 185 
5 -181 186 
5 -187 188 
5 -187 189 
5 -187 190 
5 -187 191 
5 -187 192 
5 -193 194 
5 -193 195 
5 -193 196 
5 -193 197 
5 -193 198 
5 -199 200 
5 -199 201 
5 -199 202 
5 -199 203 
5 -199 204 
5 -199 205 
5 -206 207 
5 -206 208 
5 -206 209 
5 -206 210 
5 -206 211 
5 -206 212 
5 -213 214 
5 -213 215 
5 -213 216 
5 -213 217 
5 -213 218 
5 -213 219 
5 -220 221 
5 -220 222 
5 -220 223 
5 -220 224 
5 -220 225 
5 -220 226 
5 -227 228 
5 -227 229 
5 -227 230 
5 -227 231 
5 -227 232 
5 -227 233 
5 -234 235 
5 -234 236 
5 -234 237 
5 -234 238 
5 -234 239 
5 -234 240 
5 -241 242 
5 -241 243 
5 -241 244 
5 -241 245 
5 -241 246 
5 -241 247 
5 -248 249 
5 -248 250 
5 -248 251 
5 -248 252 
5 -248 253 
5 -248 254 
5 -255 256 
5 -255 257 
5 -255 258 
5 -255 259 
5 -255 260 
5 -255 261 
5 -262 263 
5 -262 264 
5 -262 265 
5 -262 266 
5 -262 267 
5 -262 268 
5 -262 269 
5 -270 271 
5 -270 272 
5 -270 273 
5 -270 274 
5 -270 275 
5 -270 276 
5 -270 277 
5 -278 279 
5 -278 280 
5 -278 281 
5 -278 282 
5 -278 283 
5 -278 284 
5 -278 285 
5 -286 287 
5 -286 288 
5 -286 289 
5 -286 290 
5 -286 291 
5 -286 292 
5 -286 293 
5 -294 295 
5 -294 296 
5 -294 297 
5 -294 298 
5 -294 299 
5 -294 300 
5 -294 301 
5 -302 303 
5 -302 304 
5 -302 305 
5 -302 306 
5 -302 307 
5 -302 308 
5 -302 309 
5 -310 311 
5 -310 312 
5 -310 313 
5 -310 314 
5 -310 315 
5 -310 316 
5 -310 317 
5 -318 319 
5 -318 320 
5 -318 321 
5 -318 322 
5 -318 323 
5 -318 324 
5 -318 325 
5 -326 327 
5 -326 328 
5 -326 329 
5 -326 330 
5 -326 331 
5 -326 332 
5 -326 333 
5 -334 335 
5 -334 336 
5 -334 337 
5 -334 338 
5 -334 339 
5 -334 340 
5 -334 341 
5 -334 342 
5 -343 344 
5 -343 345 
5 -343 346 
5 -343 347 
5 -343 348 
5 -343 349 
5 -343 350 
5 -343 351 
5 -352 353 
5 -352 354 
5 -352 355 
5 -352 356 
5 -352 357 
5 -352 358 
5 -352 359 
5 -352 360 
5 -361 362 
5 -361 363 
5 -361 364 
5 -361 365 
5 -361 366 
5 -361 367 
5 -361 368 
5 -361 369 
5 -370 371 
5 -370 372 
5 -370 373 
5 -370 374 
5 -370 375 
5 -370 376 
5 -370 377 
5 -370 378 
5 -379 380 
5 -379 381 
5 -379 382 
5 -379 383 
5 -379 384 
5 -379 385 
5 -379 386 
5 -379 387 
5 -388 389 
5 -388 390 
5 -388 391 
5 -388 392 
5 -388 393 
5 -388 394 
5 -388 395 
5 -388 396 
5 -397 398 
5 -397 399 
5 -397 400 
5 -397 401 
5 -397 402 
5 -397 403 
5 -397 404 
5 -397 405 
5 -406 407 
5 -406 408 
5 -406 409 
5 -406 410 
5 -406 411 
5 -406 412 
5 -406 413 
5 -406 414 
5 -415 416 
5 -415 417 
5 -415 418 
5 -419 420 
5 -419 421 
5 -419 422 
5 -423 424 
5 -423 425 
5 -423 426 
5 -427 428 
5 -427 429 
5 -427 430 
5 -431 432 
5 -431 433 
5 -431 434 
5 -435 436 
5 -435 437 
5 -435 438 
5 -439 440 
5 -439 441 
5 -439 442 
5 -443 444 
5 -443 445 
5 -443 446 
5 -447 448 
5 -447 449 
5 -447 450 
5 -447 451 
5 -452 453 
5 -452 454 
5 -452 455 
5 -452 456 
5 -457 458 
5 -457 459 
5 -457 460 
5 -457 461 
5 -462 463 
5 -462 464 
5 -462 465 
5 -462 466 
5 -467 468 
5 -467 469 
5 -467 470 
5 -467 471 
5 -472 473 
5 -472 474 
5 -472 475 
5 -472 476 
5 -477 478 
5 -477 479 
5 -477 480 
5 -477 481 
5 -482 483 
5 -482 484 
5 -482 485 
5 -482 486 
5 -487 488 
5 -487 489 
5 -487 490 
5 -487 491 
5 -487 492 
5 -493 494 
5 -493 495 
5 -493 496 
5 -493 497 
5 -493 498 
5 -499 500 
5 -499 501 
5 -499 502 
5 -499 503 
5 -499 504 
5 -505 506 
5 -505 507 
5 -505 508 
5 -505 509 
5 -505 510 
5 -511 512 
5 -511 513 
5 -511 514 
5 -511 515 
5 -511 516 
5 -517 518 
5 -517 519 
5 -517 520 
5 -517 521 
5 -517 522 
5 -523 524 
5 -523 525 
5 -523 526 
5 -523 527 
5 -523 528 
5 -529 530 
5 -529 531 
5 -529 532 
5 -529 533 
5 -529 534 
5 -535 536 
5 -535 537 
5 -535 538 
5 -535 539 
5 -535 540 
5 -535 541 
5 -542 543 
5 -542 544 
5 -542 545 
5 -542 546 
5 -542 547 
5 -542 548 
5 -549 550 
5 -549 551 
5 -549 552 
5 -549 553 
5 -549 554 
5 -549 555 
5 -556 557 
5 -556 558 
5 -556 559 
5 -556 560 
5 -556 561 
5 -556 562 
5 -563 564 
5 -563 565 
5 -563 566 
5 -563 567 
5 -563 568 
5 -563 569 
5 -570 571 
5 -570 572 
5 -570 573 
5 -570 574 
5 -570 575 
5 -570 576 
5 -577 578 
5 -577 579 
5 -577 580 
5 -577 581 
5 -577 582 
5 -577 583 
5 -584 585 
5 -584 586 
5 -584 587 
5 -584 588 
5 -584 589 
5 -584 590 
5 -591 592 
5 -591 593 
5 -591 594 
5 -591 595 
5 -591 596 
5 -591 597 
5 -591 598 
5 -599 600 
5 -599 601 
5 -599 602 
5 -599 603 
5 -599 604 
5 -599 605 
5 -599 606 
5 -607 608 
5 -607 609 
5 -607 610 
5 -607 611 
5 -607 612 
5 -607 613 
5 -607 614 
5 -615 616 
5 -615 617 
5 -615 618 
5 -615 619 
5 -615 620 
5 -615 621 
5 -615 622 
5 -623 624 
5 -623 625 
5 -623 626 
5 -623 627 
5 -623 628 
5 -623 629 
5 -623 630 
5 -631 632 
5 -631 633 
5 -631 634 
5 -631 635 
5 -631 636 
5 -631 637 
5 -631 638 
5 -639 640 
5 -639 641 
5 -639 642 
5 -639 643 
5 -639 644 
5 -639 645 
5 -639 646 
5 -647 648 
5 -647 649 
5 -647 650 
5 -647 651 
5 -647 652 
5 -647 653 
5 -647 654 
5 -655 656 
5 -655 657 
5 -655 658 
5 -655 659 
5 -655 660 
5 -655 661 
5 -655 662 
5 -655 663 
5 -664 665 
5 -664 666 
5 -664 667 
5 -664 668 
5 -664 669 
5 -664 670 
5 -664 671 
5 -664 672 
5 -673 674 
5 -673 675 
5 -673 676 
5 -673 677 
5 -673 678 
5 -673 679 
5 -673 680 
5 -673 681 
5 -682 683 
5 -682 684 
5 -682 685 
5 -682 686 
5 -682 687 
5 -682 688 
5 -682 689 
5 -682 690 
5 -691 692 
5 -691 693 
5 -691 694 
5 -691 695 
5 -691 696 
5 -691 697 
5 -691 698 
5 -691 699 
5 -700 701 
5 -700 702 
5 -700 703 
5 -700 704 
5 -700 705 
5 -700 706 
5 -700 707 
5 -700 708 
5 -709 710 
5 -709 711 
5 -709 712 
5 -709 713 
5 -709 714 
5 -709 715 
5 -709 716 
5 -709 717 
5 -718 719 
5 -718 720 
5 -718 721 
5 -718 722 
5 -718 723 
5 -718 724 
5 -718 725 
5 -718 726 
5 -727 728 
5 -727 729 
5 -727 730 
5 -727 731 
5 -727 732 
5 -727 733 
5 -727 734 
5 -727 735 
5 -727 736 
5 -737 738 
5 -737 739 
5 -737 740 
5 -737 741 
5 -737 742 
5 -737 743 
5 -737 744 
5 -737 745 
5 -737 746 
5 -747 748 
5 -747 749 
5 -747 750 
5 -747 751 
5 -747 752 
5 -747 753 
5 -747 754 
5 -747 755 
5 -747 756 
5 -757 758 
5 -757 759 
5 -757 760 
5 -757 761 
5 -757 762 
5 -757 763 
5 -757 764 
5 -757 765 
5 -757 766 
5 -767 768 
5 -767 769 
5 -767 770 
5 -767 771 
5 -767 772 
5 -767 773 
5 -767 774 
5 -767 775 
5 -767 776 
5 -777 778 
5 -777 779 
5 -777 780 
5 -777 781 
5 -777 782 
5 -777 783 
5 -777 784 
5 -777 785 
5 -777 786 
5 -787 788 
5 -787 789 
5 -787 790 
5 -787 791 
5 -787 792 
5 -787 793 
5 -787 794 
5 -787 795 
5 -787 796 
5 -797 798 
5 -797 799 
5 -797 800 
5 -797 801 
5 -797 802 
5 -797 803 
5 -797 804 
5 -797 805 
5 -797 806 
5 -807 808 
5 -807 809 
5 -807 810 
5 -811 812 
5 -811 813 
5 -811 814 
5 -815 816 
5 -815 817 
5 -815 818 
5 -819 820 
5 -819 821 
5 -819 822 
5 -823 824 
5 -823 825 
5 -823 826 
5 -827 828 
5 -827 829 
5 -827 830 
5 -831 832 
5 -831 833 
5 -831 834 
5 -835 836 
5 -835 837 
5 -835 838 
5 -835 839 
5 -840 841 
5 -840 842 
5 -840 843 
5 -840 844 
5 -845 846 
5 -845 847 
5 -845 848 
5 -845 849 
5 -850 851 
5 -850 852 
5 -850 853 
5 -850 854 
5 -855 856 
5 -855 857 
5 -855 858 
5 -855 859 
5 -860 861 
5 -860 862 
5 -860 863 
5 -860 864 
5 -865 866 
5 -865 867 
5 -865 868 
5 -865 869 
5 -870 871 
5 -870 872 
5 -870 873 
5 -870 874 
5 -870 875 
5 -876 877 
5 -876 878 
5 -876 879 
5 -876 880 
5 -876 881 
5 -882 883 
5 -882 884 
5 -882 885 
5 -882 886 
5 -882 887 
5 -888 889 
5 -888 890 
5 -888 891 
5 -888 892 
5 -888 893 
5 -894 895 
5 -894 896 
5 -894 897 
5 -894 898 
5 -894 899 
5 -900 901 
5 -900 902 
5 -900 903 
5 -900 904 
5 -900 905 
5 -906 907 
5 -906 908 
5 -906 909 
5 -906 910 
5 -906 911 
5 -912 913 
5 -912 914 
5 -912 915 
5 -912 916 
5 -912 917 
5 -912 918 
5 -919 920 
5 -919 921 
5 -919 922 
5 -919 923 
5 -919 924 
5 -919 925 
5 -926 927 
5 -926 928 
5 -926 929 
5 -926 930 
5 -926 931 
5 -926 932 
5 -933 934 
5 -933 935 
5 -933 936 
5 -933 937 
5 -933 938 
5 -933 939 
5 -940 941 
5 -940 942 
5 -940 943 
5 -940 944 
5 -940 945 
5 -940 946 
5 -947 948 
5 -947 949 
5 -947 950 
5 -947 951 
5 -947 952 
5 -947 953 
5 -954 955 
5 -954 956 
5 -954 957 
5 -954 958 
5 -954 959 
5 -954 960 
5 -961 962 
5 -961 963 
5 -961 964 
5 -961 965 
5 -961 966 
5 -961 967 
5 -961 968 
5 -969 970 
5 -969 971 
5 -969 972 
5 -969 973 
5 -969 974 
5 -969 975 
5 -969 976 
5 -977 978 
5 -977 979 
5 -977 980 
5 -977 981 
5 -977 982 
5 -977 983 
5 -977 984 
5 -985 986 
5 -985 987 
5 -985 988 
5 -985 989 
5 -985 990 
5 -985 991 
5 -985 992 
5 -993 994 
5 -993 995 
5 -993 996 
5 -993 997 
5 -993 998 
5 -993 999 
5 -993 1000 
5 -1001 1002 
5 -1001 1003 
5 -1001 1004 
5 -1001 1005 
5 -1001 1006 
5 -1001 1007 
5 -1001 1008 
5 -1009 1010 
5 -1009 1011 
5 -1009 1012 
5 -1009 1013 
5 -1009 1014 
5 -1009 1015 
5 -1009 1016 
5 -1017 1018 
5 -1017 1019 
5 -1017 1020 
5 -1017 1021 
5 -1017 1022 
5 -1017 1023 
5 -1017 1024 
5 -1017 1025 
5 -1026 1027 
5 -1026 1028 
5 -1026 1029 
5 -1026 1030 
5 -1026 1031 
5 -1026 1032 
5 -1026 1033 
5 -1026 1034 
5 -1035 1036 
5 -1035 1037 
5 -1035 1038 
5 -1035 1039 
5 -1035 1040 
5 -1035 1041 
5 -1035 1042 
5 -1035 1043 
5 -1044 1045 
5 -1044 1046 
5 -1044 1047 
5 -1044 1048 
5 -1044 1049 
5 -1044 1050 
5 -1044 1051 
5 -1044 1052 
5 -1053 1054 
5 -1053 1055 
5 -1053 1056 
5 -1053 1057 
5 -1053 1058 
5 -1053 1059 
5 -1053 1060 
5 -1053 1061 
5 -1062 1063 
5 -1062 1064 
5 -1062 1065 
5 -1062 1066 
5 -1062 1067 
5 -1062 1068 
5 -1062 1069 
5 -1062 1070 
5 -1071 1072 
5 -1071 1073 
5 -1071 1074 
5 -1071 1075 
5 -1071 1076 
5 -1071 1077 
5 -1071 1078 
5 -1071 1079 
5 -1080 1081 
5 -1080 1082 
5 -1080 1083 
5 -1084 1085 
5 -1084 1086 
5 -1084 1087 
5 -1088 1089 
5 -1088 1090 
5 -1088 1091 
5 -1092 1093 
5 -1092 1094 
5 -1092 1095 
5 -1096 1097 
5 -1096 1098 
5 -1096 1099 
5 -1100 1101 
5 -1100 1102 
5 -1100 1103 
5 -1104 1105 
5 -1104 1106 
5 -1104 1107 
5 -1104 1108 
5 -1109 1110 
5 -1109 1111 
5 -1109 1112 
5 -1109 1113 
5 -1114 1115 
5 -1114 1116 
5 -1114 1117 
5 -1114 1118 
5 -1119 1120 
5 -1119 1121 
5 -1119 1122 
5 -1119 1123 
5 -1124 1125 
5 -1124 1126 
5 -1124 1127 
5 -1124 1128 
5 -1129 1130 
5 -1129 1131 
5 -1129 1132 
5 -1129 1133 
5 -1134 1135 
5 -1134 1136 
5 -1134 1137 
5 -1134 1138 
5 -1134 1139 
5 -1140 1141 
5 -1140 1142 
5 -1140 1143 
5 -1140 1144 
5 -1140 1145 
5 -1146 1147 
5 -1146 1148 
5 -1146 1149 
5 -1146 1150 
5 -1146 1151 
5 -1152 1153 
5 -1152 1154 
5 -1152 1155 
5 -1152 1156 
5 -1152 1157 
5 -1158 1159 
5 -1158 1160 
5 -1158 1161 
5 -1158 1162 
5 -1158 1163 
5 -1164 1165 
5 -1164 1166 
5 -1164 1167 
5 -1164 1168 
5 -1164 1169 
5 -1170 1171 
5 -1170 1172 
5 -1170 1173 
5 -1170 1174 
5 -1170 1175 
5 -1170 1176 
5 -1177 1178 
5 -1177 1179 
5 -1177 1180 
5 -1177 1181 
5 -1177 1182 
5 -1177 1183 
5 -1184 1185 
5 -1184 1186 
5 -1184 1187 
5 -1184 1188 
5 -1184 1189 
5 -1184 1190 
5 -1191 1192 
5 -1191 1193 
5 -1191 1194 
5 -1191 1195 
5 -1191 1196 
5 -1191 1197 
5 -1198 1199 
5 -1198 1200 
5 -1198 1201 
5 -1198 1202 
5 -1198 1203 
5 -1198 1204 
5 -1205 1206 
5 -1205 1207 
5 -1205 1208 
5 -1205 1209 
5 -1205 1210 
5 -1205 1211 
5 -1212 1213 
5 -1212 1214 
5 -1212 1215 
5 -1212 1216 
5 -1212 1217 
5 -1212 1218 
5 -1212 1219 
5 -1220 1221 
5 -1220 1222 
5 -1220 1223 
5 -1220 1224 
5 -1220 1225 
5 -1220 1226 
5 -1220 1227 
5 -1228 1229 
5 -1228 1230 
5 -1228 1231 
5 -1228 1232 
5 -1228 1233 
5 -1228 1234 
5 -1228 1235 
5 -1236 1237 
5 -1236 1238 
5 -1236 1239 
5 -1236 1240 
5 -1236 1241 
5 -1236 1242 
5 -1236 1243 
5 -1244 1245 
5 -1244 1246 
5 -1244 1247 
5 -1244 1248 
5 -1244 1249 
5 -1244 1250 
5 -1244 1251 
5 -1252 1253 
5 -1252 1254 
5 -1252 1255 
5 -1252 1256 
5 -1252 1257 
5 -1252 1258 
5 -1252 1259 
5 -1260 1261 
5 -1260 1262 
5 -1260 1263 
5 -1264 1265 
5 -1264 1266 
5 -1264 1267 
5 -1268 1269 
5 -1268 1270 
5 -1268 1271 
5 -1272 1273 
5 -1272 1274 
5 -1272 1275 
5 -1276 1277 
5 -1276 1278 
5 -1276 1279 
5 -1280 1281 
5 -1280 1282 
5 -1280 1283 
5 -1280 1284 
5 -1285 1286 
5 -1285 1287 
5 -1285 1288 
5 -1285 1289 
5 -1290 1291 
5 -1290 1292 
5 -1290 1293 
5 -1290 1294 
5 -1295 1296 
5 -1295 1297 
5 -1295 1298 
5 -1295 1299 
5 -1300 1301 
5 -1300 1302 
5 -1300 1303 
5 -1300 1304 
5 -1305 1306 
5 -1305 1307 
5 -1305 1308 
5 -1305 1309 
5 -1305 1310 
5 -1311 1312 
5 -1311 1313 
5 -1311 1314 
5 -1311 1315 
5 -1311 1316 
5 -1317 1318 
5 -1317 1319 
5 -1317 1320 
5 -1317 1321 
5 -1317 1322 
5 -1323 1324 
5 -1323 1325 
5 -1323 1326 
5 -1323 1327 
5 -1323 1328 
5 -1329 1330 
5 -1329 1331 
5 -1329 1332 
5 -1329 1333 
5 -1329 1334 
5 -1335 1336 
5 -1335 1337 
5 -1335 1338 
5 -1335 1339 
5 -1335 1340 
5 -1335 1341 
5 -1342 1343 
5 -1342 1344 
5 -1342 1345 
5 -1342 1346 
5 -1342 1347 
5 -1342 1348 
5 -1349 1350 
5 -1349 1351 
5 -1349 1352 
5 -1349 1353 
5 -1349 1354 
5 -1349 1355 
5 -1356 1357 
5 -1356 1358 
5 -1356 1359 
5 -1356 1360 
5 -1356 1361 
5 -1356 1362 
5 -1363 1364 
5 -1363 1365 
5 -1363 1366 
5 -1363 1367 
5 -1363 1368 
5 -1363 1369 
5 -1370 1371 
5 -1370 1372 
5 -1370 1373 
5 -1374 1375 
5 -1374 1376 
5 -1374 1377 
5 -1378 1379 
5 -1378 1380 
5 -1378 1381 
5 -1382 1383 
5 -1382 1384 
5 -1382 1385 
5 -1386 1387 
5 -1386 1388 
5 -1386 1389 
5 -1386 1390 
5 -1391 1392 
5 -1391 1393 
5 -1391 1394 
5 -1391 1395 
5 -1396 1397 
5 -1396 1398 
5 -1396 1399 
5 -1396 1400 
5 -1401 1402 
5 -1401 1403 
5 -1401 1404 
5 -1401 1405 
5 -1406 1407 
5 -1406 1408 
5 -1406 1409 
5 -1406 1410 
5 -1406 1411 
5 -1412 1413 
5 -1412 1414 
5 -1412 1415 
5 -1412 1416 
5 -1412 1417 
5 -1418 1419 
5 -1418 1420 
5 -1418 1421 
5 -1418 1422 
5 -1418 1423 
5 -1424 1425 
5 -1424 1426 
5 -1424 1427 
5 -1424 1428 
5 -1424 1429 
5 -1430 1431 
5 -1430 1432 
5 -1430 1433 
5 -1434 1435 
5 -1434 1436 
5 -1434 1437 
5 -1438 1439 
5 -1438 1440 
5 -1438 1441 
5 -1442 1443 
5 -1442 1444 
5 -1442 1445 
5 -1442 1446 
5 -1447 1448 
5 -1447 1449 
5 -1447 1450 
5 -1447 1451 
5 -1452 1453 
5 -1452 1454 
5 -1452 1455 
5 -1452 1456 
5 -1457 1458 
5 -1457 1459 
5 -1457 1460 
5 -1461 1462 
5 -1461 1463 
5 -1461 1464 
5 -1465 1466 
5 -1467 1468 
5 -1469 1470 
5 -1471 1472 
5 -1473 1474 
5 -1475 1476 
5 -1477 1478 
5 -1479 1480 
5 -1481 1482 
5 -1483 1484 
5 -1483 1485 
5 -1486 1487 
5 -1486 1488 
5 -1489 1490 
5 -1489 1491 
5 -1492 1493 
5 -1492 1494 
5 -1495 1496 
5 -1495 1497 
5 -1498 1499 
5 -1498 1500 
5 -1501 1502 
5 -1501 1503 
5 -1504 1505 
5 -1504 1506 
5 -1507 1508 
5 -1507 1509 
5 -1510 1511 
5 -1510 1512 
5 -1510 1513 
5 -1514 1515 
5 -1514 1516 
5 -1514 1517 
5 -1518 1519 
5 -1518 1520 
5 -1518 1521 
5 -1522 1523 
5 -1522 1524 
5 -1522 1525 
5 -1526 1527 
5 -1526 1528 
5 -1526 1529 
5 -1530 1531 
5 -1530 1532 
5 -1530 1533 
5 -1534 1535 
5 -1534 1536 
5 -1534 1537 
5 -1538 1539 
5 -1538 1540 
5 -1538 1541 
5 -1542 1543 
5 -1542 1544 
5 -1542 1545 
5 -1546 1547 
5 -1546 1548 
5 -1546 1549 
5 -1546 1550 
5 -1551 1552 
5 -1551 1553 
5 -1551 1554 
5 -1551 1555 
5 -1556 1557 
5 -1556 1558 
5 -1556 1559 
5 -1556 1560 
5 -1561 1562 
5 -1561 1563 
5 -1561 1564 
5 -1561 1565 
5 -1566 1567 
5 -1566 1568 
5 -1566 1569 
5 -1566 1570 
5 -1571 1572 
5 -1571 1573 
5 -1571 1574 
5 -1571 1575 
5 -1576 1577 
5 -1576 1578 
5 -1576 1579 
5 -1576 1580 
5 -1581 1582 
5 -1581 1583 
5 -1581 1584 
5 -1581 1585 
5 -1586 1587 
5 -1586 1588 
5 -1586 1589 
5 -1586 1590 
5 -1591 1592 
5 -1591 1593 
5 -1591 1594 
5 -1595 1596 
5 -1595 1597 
5 -1595 1598 
5 -1599 1600 
5 -1599 1601 
5 -1599 1602 
5 -1603 1604 
5 -1603 1605 
5 -1603 1606 
5 -1607 1608 
5 -1607 1609 
5 -1607 1610 
5 -1611 1612 
5 -1611 1613 
5 -1611 1614 
5 -1615 1616 
5 -1615 1617 
5 -1615 1618 
5 -1619 1620 
5 -1619 1621 
5 -1619 1622 
5 -1623 1624 
5 -1623 1625 
5 -1623 1626 
5 -1623 1627 
5 -1628 1629 
5 -1628 1630 
5 -1628 1631 
5 -1628 1632 
5 -1633 1634 
5 -1633 1635 
5 -1633 1636 
5 -1633 1637 
5 -1638 1639 
5 -1638 1640 
5 -1638 1641 
5 -1638 1642 
5 -1643 1644 
5 -1643 1645 
5 -1643 1646 
5 -1643 1647 
5 -1648 1649 
5 -1648 1650 
5 -1648 1651 
5 -1648 1652 
5 -1653 1654 
5 -1653 1655 
5 -1653 1656 
5 -1653 1657 
5 -1658 1659 
5 -1658 1660 
5 -1658 1661 
5 -1658 1662 
5 -1663 1664 
5 -1663 1665 
5 -1663 1666 
5 -1663 1667 
5 -1663 1668 
5 -1669 1670 
5 -1669 1671 
5 -1669 1672 
5 -1669 1673 
5 -1669 1674 
5 -1675 1676 
5 -1675 1677 
5 -1675 1678 
5 -1675 1679 
5 -1675 1680 
5 -1681 1682 
5 -1681 1683 
5 -1681 1684 
5 -1681 1685 
5 -1681 1686 
5 -1687 1688 
5 -1687 1689 
5 -1687 1690 
5 -1687 1691 
5 -1687 1692 
5 -1693 1694 
5 -1693 1695 
5 -1693 1696 
5 -1693 1697 
5 -1693 1698 
5 -1699 1700 
5 -1699 1701 
5 -1699 1702 
5 -1699 1703 
5 -1699 1704 
5 -1705 1706 
5 -1705 1707 
5 -1705 1708 
5 -1705 1709 
5 -1705 1710 
5 -1711 1712 
5 -1711 1713 
5 -1711 1714 
5 -1715 1716 
5 -1715 1717 
5 -1715 1718 
5 -1719 1720 
5 -1719 1721 
5 -1719 1722 
5 -1723 1724 
5 -1723 1725 
5 -1723 1726 
5 -1727 1728 
5 -1727 1729 
5 -1727 1730 
5 -1731 1732 
5 -1731 1733 
5 -1731 1734 
5 -1735 1736 
5 -1735 1737 
5 -1735 1738 
5 -1739 1740 
5 -1739 1741 
5 -1739 1742 
5 -1739 1743 
5 -1744 1745 
5 -1744 1746 
5 -1744 1747 
5 -1744 1748 
5 -1749 1750 
5 -1749 1751 
5 -1749 1752 
5 -1749 1753 
5 -1754 1755 
5 -1754 1756 
5 -1754 1757 
5 -1754 1758 
5 -1759 1760 
5 -1759 1761 
5 -1759 1762 
5 -1759 1763 
5 -1764 1765 
5 -1764 1766 
5 -1764 1767 
5 -1764 1768 
5 -1769 1770 
5 -1769 1771 
5 -1769 1772 
5 -1769 1773 
5 -1774 1775 
5 -1774 1776 
5 -1774 1777 
5 -1778 1779 
5 -1778 1780 
5 -1778 1781 
5 -1782 1783 
5 -1782 1784 
5 -1782 1785 
5 -1786 1787 
5 -1786 1788 
5 -1786 1789 
5 -1790 1791 
5 -1790 1792 
5 -1790 1793 
5 -1794 1795 
5 -1794 1796 
5 -1794 1797 
5 -1798 1799 
5 -1800 1801 
5 -1802 1803 
5 -1804 1805 
5 -1806 1807 
1 1807 
2 1805 
3 1803 
4 1801 
5 1799 
